db/inputs/2077271249322149011215131231317431705.smt2
(set-logic QF_FP)
(declare-const x0 (_ FloatingPoint 8 24))
(declare-const x1 (_ FloatingPoint 8 24))
(declare-const x2 (_ FloatingPoint 8 24))
(declare-const x3 (_ FloatingPoint 8 24))
(declare-const x4 (_ FloatingPoint 8 24))
(declare-const x5 (_ FloatingPoint 8 24))
(assert (fp.gt (fp.div RNE x4 x1) (fp.sub RNE x3 x3)))
(assert (fp.lt (fp.mul RNE x5 x3) (fp.add RNE x5 x1)))
(assert (fp.leq (fp.add RNE x3 x3) (fp.neg x2)))
(assert (fp.gt (fp.add RNE x5 x4) (fp.add RNE x3 x5)))
(assert (fp.leq (fp.neg x1) (fp.add RNE x2 x0)))
(assert (fp.geq (fp.sub RNE x0 x5) (fp.add RNE x5 x3)))
(check-sat)
