db/data/2077271249322149011215131231317431705.z3.out
sat
-------------------
5.252685792
